50
1000
240
239
238
235
234
234
233
232
232
232
230
228
226
226
226
224
220
215
215
214
214
210
209
209
207
206
205
201
198
197
195
194
191
191
185
183
181
181
181
178
177
176
176
174
171
171
171
170
168
168
